c colouring generated by benchmark framework
p edge 77 363
v 1 1
v 2 1
v 3 1
v 4 1
v 5 1
v 6 1
v 7 1
v 8 1
v 9 1
v 10 1
v 11 1
v 12 1
v 13 1
v 14 1
v 15 1
v 16 1
v 17 1
v 18 1
v 19 1
v 20 1
v 21 1
v 22 1
v 23 1
v 24 1
v 25 1
v 26 1
v 27 1
v 28 1
v 29 1
v 30 1
v 31 1
v 32 1
v 33 1
v 34 1
v 35 1
v 36 1
v 37 1
v 38 1
v 39 1
v 40 0
v 41 0
v 42 0
v 43 0
v 44 0
v 45 0
v 46 0
v 47 0
v 48 0
v 49 0
v 50 0
v 51 0
v 52 0
v 53 0
v 54 0
v 55 0
v 56 0
v 57 0
v 58 0
v 59 0
v 60 0
v 61 0
v 62 0
v 63 0
v 64 0
v 65 0
v 66 0
v 67 0
v 68 0
v 69 0
v 70 0
v 71 0
v 72 0
v 73 0
v 74 0
v 75 0
v 76 0
v 77 0
